0 0 0 0
0 1 2 0
0 2 0 0
0 3 0 0
0 4 0 3
0 5 0 5
0 6 0 7
0 7 0 3
0 8 2 2
0 9 0 5
0 10 0 3
0 11 1 2
0 12 0 2
0 13 2 3
0 14 1 7
0 15 2 3
0 16 2 5
0 17 0 9
0 18 2 10
0 19 1 5
0 20 0 14
0 21 0 15
0 22 0 14
0 23 0 22
0 24 0 22
0 25 0 28
0 26 0 17
0 27 2 22
0 28 0 33
0 29 1 18
0 30 0 33
0 31 0 34
